1466381
104,22,64,10,109,24,23,15,53,54,76,106,42,50,108,78,33,21,48,80,17,92,74,56,103,30,6,95,32,43,61,85,67,4,79,44,20,63,3,83,25,16,107,46,51,84,59,2,81,94,29,34,52,35,5,98,101,1,82,45,90,9,77,66,37,57,75,86,27,69,70,14,39,31,72,26,38,41,49,89,11,91,97,47,71,7,65,12,19,93,88,96,62,99,73,60,55,8,28,36,40,68,13,18,87,105,100,102,58